Constructor : 
	simulation seed: 10
	output path: ./out/Small
	input data folder ./in/MILPexp
	output data folder ./out/Small/S5D2U3/10
	loading data from ./in/MILPexp
	initializing MILP Solver
Set parameter Username
Set parameter TimeLimit to value 86400
Set parameter MemLimit to value 64
Set parameter Method to value 0
Academic license - for non-commercial use only - expires 2023-04-21
	 Setting up MILP
6, 6
	 Saving MILP in ./out/Small/S5D2U3/10/MILP-primal/model.lp
Warning: linear constraint 33332 and linear constraint 101807 have the same name "socInit_1"
Gurobi Optimizer version 9.5.1 build v9.5.1rc2 (linux64)
Thread count: 24 physical cores, 48 logical processors, using up to 24 threads
Optimize a model with 102926 rows, 565 columns and 618705 nonzeros
Model fingerprint: 0x6b0ac1ac
Variable types: 43 continuous, 522 integer (522 binary)
Coefficient statistics:
  Matrix range     [1e+00, 2e+05]
  Objective range  [1e+00, 1e+00]
  Bounds range     [1e+00, 1e+00]
  RHS range        [1e+00, 1e+06]
Presolve removed 18312 rows and 115 columns
Presolve time: 1.03s
Presolved: 84614 rows, 450 columns, 509334 nonzeros
Variable types: 34 continuous, 416 integer (416 binary)

Root relaxation: objective 6.666667e+00, 9185 iterations, 1.09 seconds (0.93 work units)

    Nodes    |    Current Node    |     Objective Bounds      |     Work
 Expl Unexpl |  Obj  Depth IntInf | Incumbent    BestBd   Gap | It/Node Time

     0     0    6.66667    0   83          -    6.66667      -     -    3s
     0     0   14.09114    0  115          -   14.09114      -     -    5s
     0     0   14.09114    0  114          -   14.09114      -     -    5s
     0     0   14.91160    0   91          -   14.91160      -     -    7s
     0     0   14.98781    0   91          -   14.98781      -     -    7s
     0     0   14.98781    0   95          -   14.98781      -     -    7s
     0     0   15.07036    0  159          -   15.07036      -     -    9s
     0     0   15.08381    0  150          -   15.08381      -     -    9s
     0     0   15.08381    0  151          -   15.08381      -     -    9s
     0     0   16.54410    0  126          -   16.54410      -     -   11s
     0     0   16.55172    0  133          -   16.55172      -     -   11s
     0     0   16.55172    0  133          -   16.55172      -     -   11s
     0     0   16.55172    0  125          -   16.55172      -     -   12s
     0     0   16.55172    0  134          -   16.55172      -     -   13s
     0     0   16.55172    0  123          -   16.55172      -     -   14s
     0     0   16.55172    0  127          -   16.55172      -     -   14s
     0     0   16.55172    0  121          -   16.55172      -     -   17s
     0     0   16.55172    0  120          -   16.55172      -     -   17s
     0     0   16.55172    0  110          -   16.55172      -     -   20s
     0     0   16.55172    0  124          -   16.55172      -     -   21s
     0     0   16.55172    0  122          -   16.55172      -     -   23s
     0     0   16.55172    0  118          -   16.55172      -     -   23s
     0     0   16.55172    0  128          -   16.55172      -     -   25s
     0     0   16.55172    0  115          -   16.55172      -     -   27s
     0     2   16.55172    0  115          -   16.55172      -     -   38s
     3     8   17.14286    2  108          -   17.14286      -   168   40s
    31    56   18.75000    5  101          -   18.75000      -   115   45s
   127   164   40.00000    8   65          -   18.75000      -  75.9   50s
   238   269   40.20706   14   73          -   18.75000      -  67.0   55s
   359   388  413.63572   16   63          -   18.75000      -  68.5   60s
   507   504 1051.58112   22   33          -   18.75000      -  66.2   66s
   605   576 2521.58112   28   10          -   18.75000      -  68.3   72s
   720   642 2551.58112   32   19          -   22.34884      -  69.9   76s
   844   730   40.00000   11   48          -   22.34884      -  70.0   80s
  1066   827   40.20706   13   70          -   22.34884      -  67.2   86s
  1202   904  285.48255   14   45          -   22.34884      -  68.9   91s
  1283   953  755.71429   14   36          -   22.34884      -  68.3   95s
  1450  1053  755.92134   16   66          -   22.34884      -  68.3  100s
  1621  1132  759.31608   17   58          -   22.34884      -  69.2  106s
  1707  1184 2063.78305   13   53          -   22.34884      -  69.6  110s
  1911  1260 1767.29540   19   60          -   22.34884      -  69.5  117s
  2014  1315 1767.29540   24   45          -   22.34884      -  70.0  121s
  2236  1424 infeasible   35               -   23.44022      -  70.4  129s
  2348  1483   40.00000    9   65          -   23.44022      -  70.2  133s
  2476  1562   40.00000   12   59          -   23.44022      -  70.4  142s
  2624  1640   40.00000   15   59          -   23.44022      -  70.0  148s
  2782  1698   40.00000   17   42          -   23.44022      -  69.7  151s
  3042  1837   55.75859   18   73          -   23.44022      -  70.9  155s
  3169  1838 1051.58112   32  115          -   23.44022      -  71.8  161s
  3171  1839   40.00000   22  138          -   23.44022      -  71.7  171s
H 3171  1747                    3453.1622320   23.44022  99.3%  71.7  176s
H 3171  1659                    2961.4285714   23.44022  99.2%  71.7  176s
  3174  1661  755.71429   18  115 2961.42857   26.20964  99.1%  71.7  181s
  3175  1662  355.71763   23   99 2961.42857   28.02716  99.1%  71.7  188s
  3176  1663 2187.14286   21  104 2961.42857   28.02716  99.1%  71.6  192s
  3177  1663 1470.00000   10  112 2961.42857   29.00095  99.0%  71.6  199s
  3178  1664   63.54965   31  108 2961.42857   29.00251  99.0%  71.6  205s
  3179  1665 1430.00000   20  123 2961.42857   29.00378  99.0%  71.6  213s
  3180  1665   69.85803   24  123 2961.42857   29.00556  99.0%  71.5  219s
  3181  1666  715.71429   12  110 2961.42857   29.00865  99.0%  71.5  226s
  3182  1667   59.25344   18  112 2961.42857   29.00865  99.0%  71.5  231s
H 3182  1584                    2123.1622320   29.00865  98.6%  71.5  239s
  3183  1584   80.00000   18  113 2123.16223   39.39970  98.1%  71.5  247s
  3184  1585   80.00000   12  116 2123.16223   40.00000  98.1%  71.5  255s
  3185  1586   80.00000   22  116 2123.16223   40.00000  98.1%  71.4  264s
  3186  1586   48.39132   16  107 2123.16223   40.00000  98.1%  71.4  270s
  3187  1587 2123.16223   14  110 2123.16223   40.00000  98.1%  71.4  284s
  3188  1588 2123.16223   19  102 2123.16223   40.00000  98.1%  71.4  289s
  3189  1588 1430.00000   23   85 2123.16223   40.00000  98.1%  71.3  297s
  3190  1589  938.42382   19  110 2123.16223   40.00000  98.1%  71.3  305s
  3191  1590  755.71429   13  112 2123.16223   40.00000  98.1%  71.3  324s
  3192  1590 1471.42857   16   94 2123.16223   40.00000  98.1%  71.3  337s
  3193  1591 2123.16223   21   94 2123.16223   40.00000  98.1%  71.2  341s
  3194  1594   40.00000   11   87 2123.16223   40.00000  98.1%  85.3  374s
  3196  1596   40.00000   12   87 2123.16223   40.00000  98.1%  85.3  431s
  3199  1600   40.00000   13   74 2123.16223   40.00000  98.1%  85.3  441s
  3205  1609   40.00000   14   67 2123.16223   40.00000  98.1%  85.4  455s
  3216  1625   40.00000   15   74 2123.16223   40.00000  98.1%  85.4  474s
  3238  1642   40.00000   16   72 2123.16223   40.00000  98.1%  86.1  478s
H 3246  1559                    2123.1622317   40.00000  98.1%  86.1  478s
  3262  1574   40.00000   17   57 2123.16223   40.00000  98.1%  86.3  483s
  3286  1584   40.00000   17   71 2123.16223   40.00000  98.1%  86.7  491s
  3310  1600   40.00000   18   74 2123.16223   40.00000  98.1%  86.9  498s
H 3311  1524                    1827.2954015   40.00000  97.8%  86.8  498s
  3334  1535   40.00000   18   70 1827.29540   40.00000  97.8%  87.6  502s
H 3367  1473                    1511.4285714   40.00000  97.4%  87.6  520s
  3392  1482   40.00000   19   61 1511.42857   40.00000  97.4%  88.1  526s
  3436  1480   40.00000   20   62 1511.42857   40.00000  97.4%  88.4  617s
  3465  1480   40.00000   20   16 1511.42857   40.00000  97.4%  88.6  628s
  3520  1467   40.00000   22   87 1511.42857   40.00000  97.4%  89.1  640s
H 3544  1391                    1511.4285713   40.00000  97.4%  89.6  640s
  3553  1415   40.00000   22   45 1511.42857   40.00000  97.4%  90.0  654s
